! PBE D3 def2-TZVP opt PModel TightSCF NOAUTOSTART cpcm(water)

%pal nprocs=16 end
%geom maxiter=200 end
%maxcore 1500
%base "1_d-cys"

* xyz -2 1
16      -2.526605986     -0.389226160     -0.028387033
8        2.175497128      0.707315568     -0.796802396
8        2.220876293     -1.226312571      0.375043438
7       -0.056809138      1.552662402      0.554226602
6        0.225874513      0.111214763      0.492198761
6       -0.748650951     -0.657300424     -0.430949145
6        1.670970493     -0.149019636     -0.006535041
1        0.132962812     -0.319137519      1.504805852
1       -0.556313686     -0.334447014     -1.469522166
1       -0.506848151     -1.730651280     -0.372044054
1       -1.075334397      1.642974377      0.411278164
1        0.401823070      1.956331492     -0.272199981
29      -5.074034383     -0.005133210      0.548398169
29      -7.717956279      0.393508714      1.147031296
16     -10.130293776      0.757233098      1.693229404
8      -14.565056884      1.683385574      3.531097027
8      -14.810674493     -0.251022713      2.385699161
7      -12.734752414      2.608392117      1.709715592
6      -12.944586074      1.157691211      1.823581790
6      -11.757323506      0.425216005      2.491717400
6      -14.226048122      0.845571736      2.639177396
1      -13.072061247      0.730629372      0.813345651
1      -11.716778240      0.741264834      3.549229144
1      -11.968201935     -0.656192787      2.481432477
1      -11.714499111      2.735504535      1.615323624
1      -13.004850696      2.995506697      2.622657186
*
