! ri-mp2 RIJCOSX def2-TZVP def2-TZVP/C def2/J opt PModel slowconv TightSCF cpcm(water)
%pal nprocs=16 end
%geom maxiter=200 end
%maxcore 1500
%base "0_Cu_Cys2"
*xyz -1 1
16       2.461362142      0.944328269      0.420667637
8       -1.972037858      0.877928269      0.490467637
8       -0.193237858      1.786028269     -0.585132363
7       -0.724437858     -1.545171731     -0.213232363
6        0.044662142     -0.432571731      0.347667637
6        1.465062142     -0.439071731     -0.220432363
6       -0.699437858      0.848428269      0.020167637
1        0.084362142     -0.529671731      1.439467637
1        1.976662142     -1.370671731      0.045067637
1        1.455762142     -0.362971731     -1.313832363
1       -1.634337858     -1.595571731      0.243967637
1       -0.253837858     -2.424871731     -0.004232363
1       -2.421537858      1.723328269      0.277267637
29       3.905451039      2.949499983      1.349911230
16       5.386729382      5.067343190      2.417183919
8        5.929530788      8.493577417      5.179538388
8        4.937365231      6.462489579      4.989854147
7        8.257187537      7.031154534      4.574190198
6        7.019795472      6.832345752      3.816999121
6        6.924393962      5.381446967      3.341491722
6        5.863870417      7.218096608      4.720844021
1        7.009489064      7.505103731      2.950787703
1        7.765701801      5.141105960      2.682294717
1        6.952315937      4.683975586      4.186568817
1        8.363578772      8.019589345      4.800392624
1        9.056888205      6.786795950      3.991279249
1        5.161865272      8.718331955      5.747324177
*

$new_job 

! ri-mp2 RIJCOSX def2-TZVP def2-TZVP/C def2/J opt PModel slowconv TightSCF cpcm(water)
%pal nprocs=16 end
%geom maxiter=200 end
%maxcore 1500
%base "1_Cu2_Cys2"
*xyz -2 1
29      -1.149967260     -0.514605917     -0.706152191
29       1.314270740     -0.385122917      0.389141809
16       3.846431327     -0.245055643      1.590512700
8        7.382776178      1.188154498      3.849824619
8        5.754426860     -0.391139294      3.849983059
7        7.907807378      0.155380138      1.284511301
6        6.539485114      0.442250436      1.719714695
6        5.564780334     -0.535843510      1.061232465
6        6.512356499      0.348844593      3.233795751
1        6.275138678      1.469483204      1.440527409
1        5.600790656     -0.432814173     -0.028809544
1        5.816953936     -1.573783609      1.307179787
1        8.537712591      0.871152068      1.645592977
1        7.962661852      0.216843985      0.268523785
1        7.331114110      1.116491847      4.826759185
16      -3.449942681     -0.548806727     -1.566041802
8       -7.219562909      1.761281234     -1.222860353
8       -5.443842629      1.388800413     -2.584391084
7       -7.510738633     -1.032285639     -1.408100420
6       -6.201197294     -0.421635258     -1.171013992
6       -5.102260837     -1.277304674     -1.803852466
6       -6.240215791      0.981545027     -1.746743708
1       -6.027073484     -0.338307688     -0.091306090
1       -5.094115897     -2.277446215     -1.356914072
1       -5.261566659     -1.394478254     -2.881949524
1       -8.226069247     -0.513648278     -0.899369244
1       -7.520857265     -1.977142576     -1.025791079
1       -7.209657442      2.665744508     -1.602404443

*

$new_job 

! ri-mp2 RIJCOSX def2-TZVP def2-TZVP/C def2/J opt PModel slowconv TightSCF cpcm(water)
%pal nprocs=16 end
%geom maxiter=200 end
%maxcore 1500
%base "2_Cu3_Cys2"
*xyz -1 1
29       0.628423618     -0.304219692     -2.275236864
29       3.030436618      0.354268308     -3.139544864
16      -1.696671382     -0.829316692     -1.588102864
29      -0.704779382     -0.895074692      0.613281136
16       0.175530618     -1.002382692      2.814109136
6        0.850756051     -1.084691300      4.502213371
1        0.133413719     -0.595394425      5.171100363
1        0.907536908     -2.140610709      4.788418728
1        2.931829540     -0.954956460      3.934665254
6        2.231597616     -0.433278608      4.598411598
6        2.206783770      1.028752030      4.193747854
8        1.200941684      1.598635403      3.787256857
8        3.412641468      1.643848234      4.289283025
1        3.368384497      2.582064868      4.006446464
7        2.722880522     -0.501382731      5.976092735
1        2.758616675     -1.474349430      6.277881040
1        3.682225483     -0.158235380      6.013471209
6       -3.339325730     -1.056792774     -2.337997074
1       -3.316748965     -0.597431014     -3.332923365
1       -3.500328181     -2.132271481     -2.470387149
1       -4.461722371     -0.947144422     -0.494627366
6       -4.450326268     -0.455631947     -1.475095293
6       -4.260502904      1.032504771     -1.248559950
8       -3.295863679      1.660631605     -1.668855246
8       -5.242005978      1.602712895     -0.504868140
1       -5.083802118      2.560243740     -0.362348421
7       -5.747668322     -0.640430169     -2.128360624
1       -5.910221579     -1.633754120     -2.289299797
1       -6.491321501     -0.329657253     -1.503948779
*

$new_job

! ri-mp2 RIJCOSX def2-TZVP def2-TZVP/C def2/J opt PModel slowconv TightSCF cpcm(water)
%pal nprocs=16 end
%geom maxiter=200 end
%maxcore 1500
%base "3_Cu4_Cys3"
*xyz -1 1
29      -1.706402596     -1.926630579     -0.613828674
16       1.704374404     -1.059549579      2.965884326
16      -2.400967596     -0.612016579     -2.724154674
29      -0.164079596     -2.082203579      1.507198326
29      -0.301763596      0.282166421     -1.779093674
29       1.567027404      0.093359421      0.790849326
16       1.836688404      1.382606421     -1.278981674
6        2.583474967     -1.116637617      4.558468125
1        1.950981746     -0.622469902      5.304894180
1        2.682247187     -2.168478030      4.848259714
1        4.577594288     -0.983505030      3.736535824
6        3.961228106     -0.456937520      4.475353208
6        3.876824216      0.999614493      4.059138988
8        2.824679576      1.559029127      3.773189320
8        5.081098870      1.622091876      3.997433530
1        4.995959239      2.556348705      3.710865785
7        4.619361164     -0.504766611      5.782478158
1        4.698619156     -1.473570033      6.089325922
1        5.573655472     -0.156230287      5.696834620
6        3.009136516      2.546083389     -2.043237371
1        3.452105862      3.146624471     -1.240411220
1        3.811700939      1.958606545     -2.502437408
1        1.918006808      2.807594379     -3.890087885
6        2.333970764      3.433139134     -3.090901120
6        1.201311568      4.254777099     -2.504474430
8        0.842274359      4.170380893     -1.335847093
8        0.594590104      5.070808832     -3.403109157
1       -0.142423815      5.576508462     -2.999024986
7        3.307903162      4.367028291     -3.659503888
1        4.081622225      3.845356883     -4.069668736
1        2.877646847      4.884001707     -4.425733619
6       -3.622828664     -0.428140149     -4.060434955
1       -3.136538126      0.107668665     -4.883740298
1       -3.878745248     -1.430903822     -4.419705170
1       -5.355759241     -0.263909373     -2.779892597
6       -4.880469253      0.304164599     -3.588856830
6       -4.573435627      1.694375703     -3.064504373
8       -3.438178550      2.148576917     -2.983184523
8       -5.671137997      2.381180041     -2.658410287
1       -5.439662738      3.268635915     -2.310492300
7       -5.821955888      0.450067666     -4.700755023
1       -6.055454480     -0.469660417     -5.073040009
1       -6.696296785      0.846595550     -4.357558805

* 

$new_job

! ri-mp2 RIJCOSX def2-TZVP def2-TZVP/C def2/J opt PModel slowconv TightSCF cpcm(water)
%pal nprocs=16 end
%geom maxiter=200 end
%maxcore 1500
%base "4_Cu5_Cys5"
*xyz -1 1
29       0.082016021      0.002670360      0.059043811
29       2.762769021      0.799505360     -0.334164189
16      -1.632236979     -1.978257640      0.182540811
29      -0.332068979     -2.102812640      2.199290811
16       1.438402021     -2.028635640      3.867438811
29       2.175380021     -0.658061640      1.835964811
29       0.765680021      2.115767360     -2.003178189
16      -1.402255979      1.892419360     -0.991546189
16       3.154575021      2.160118360     -2.465767189
6        1.902362987     -2.610620815      5.528292049
1        1.149736993     -2.238504509      6.232908845
1        1.846346362     -3.704679095      5.526882797
1        4.039591888     -2.553967124      5.213884917
6        3.306924145     -2.151170577      5.923803686
6        3.438752438     -0.639706952      5.922767479
8        2.532925421      0.115658180      5.590169787
8        4.667408492     -0.197011286      6.291532913
1        4.726671633      0.781784568      6.265994568
7        3.626304302     -2.620889746      7.273382360
1        3.553788028     -3.637071717      7.307043063
1        4.597450196     -2.399275459      7.490759387
6       -2.998800007     -2.819829109     -0.675749903
1       -2.959513566     -2.525793142     -1.730927939
1       -2.813336614     -3.898195552     -0.622528537
1       -4.373751154     -2.805937362      0.991320948
6       -4.356711027     -2.483209503     -0.056814588
6       -4.651097184     -0.995244626     -0.091446587
8       -3.861656467     -0.161763647     -0.520180889
8       -5.859385923     -0.663879557      0.429896499
1       -6.014295704      0.304487286      0.408118806
7       -5.425082005     -3.161505247     -0.793361069
1       -5.260888383     -4.167466880     -0.783406321
1       -6.314227375     -3.015313016     -0.316351267
6       -3.057966238      2.647873932     -1.009207604
1       -3.140840577      3.245033474     -1.924594727
1       -3.793941611      1.838756810     -1.070633197
1       -3.240568462      2.875439012      1.131978849
6       -3.310281661      3.502141075      0.234528943
6       -2.302670730      4.628008682      0.372530407
8       -1.366192500      4.792954115     -0.400464949
8       -2.511420717      5.420049705      1.454499703
1       -1.836126009      6.127947675      1.525655669
7       -4.641599548      4.107728582      0.164823590
1       -5.345417883      3.375478373      0.078412751
1       -4.842545168      4.591371982      1.039580658
6        4.402897816      2.790840105     -3.630361659
1        5.126592600      3.379496939     -3.054905098
1        4.932732550      1.929381650     -4.051393552
1        3.069838679      3.005945899     -5.317516570
6        3.773258063      3.625053143     -4.747482247
6        3.011663286      4.822573157     -4.210992478
8        2.877864235      5.055822301     -3.015411890
8        2.458807158      5.597830242     -5.177889397
1        1.960580833      6.353860539     -4.800537610
7        4.815196984      4.130307145     -5.643631821
1        5.343219117      3.347866636     -6.028335508
1        4.382958005      4.598428292     -6.439572815

*
