! ri-mp2 RIJCOSX def2-TZVP def2-TZVP/C def2/J opt PModel slowconv TightSCF cpcm(water)
%pal nprocs=16 end
%geom maxiter=200 end
%maxcore 1500
%base "0_Cu_Gsh2"
*xyz -1 1
16       2.461362142      0.944328269      0.420667637
29       3.905451039      2.949499983      1.349911230
16       5.386729382      5.067343190      2.417183919
6        6.350882225      6.445831277      3.111863621
1        5.743047508      6.884987938      3.910446237
1        5.856340872      7.689751307      1.429184153
6        6.721621499      7.518350399      2.084615771
6        7.062208479      8.867657888      2.714062631
8        7.150089479      8.263098656     -0.670027470
8        8.201092547      9.177972058      3.057555870
6        7.936148256      7.522514561     -0.085457040
7        7.815197023      7.109956038      1.233577089
1        8.555802378      6.556553645      1.653974662
1        7.248929967      6.033220585      3.584969085
6        9.172972576      6.934394753     -0.743180472
1        8.835942807      6.325623327     -1.590210841
1        9.698947540      6.257289607     -0.060646971
6       10.591634134      8.961246660     -0.118326584
6       10.141159642      8.012560050     -1.234554692
1        9.681878425      8.580475459     -2.055086583
1       10.794941102      8.424799204      0.815784316
1       11.015928951      7.513639865     -1.671226623
6       11.844313686      9.722345424     -0.513299672
8       11.860567973     10.771475726     -1.145027349
8       12.978132130      9.093278036     -0.107742451
1       13.784152363      9.583596684     -0.376595473
1        9.905224084     10.672833988      0.764172498
7        9.550261888      9.963033362      0.122637867
1        8.759678707      9.549217854      0.608617897
1        6.805080039     11.009940863      4.208179540
6        6.003664574     10.986825337      3.463853952
7        5.942213658      9.672222802      2.868999492
1        5.036002764      9.338495158      2.554334246
1        5.037975349     11.170781301      3.942992902
6        6.254705228     12.076742600      2.453837912
8        6.350273140     13.260554467      2.753741458
1        6.526496941     12.350194351      0.546063352
8        6.362855697     11.622936655      1.183553026
6        1.465816008     -0.438024958     -0.219947264
1        1.640273829     -0.478119170     -1.300693642
1       -0.325993946      0.743790921     -0.093271693
6       -0.032052130     -0.303216483      0.065010165
6       -0.903611981     -1.143321530     -0.866354681
8       -2.156007858      0.832921721      1.653813553
8       -1.228629525     -2.302040099     -0.615208739
6       -1.408307591     -0.023891889      2.117376425
7       -0.362752422     -0.627046718      1.433487974
1        0.154812885     -1.380708222      1.875760639
1        1.859745749     -1.369628243      0.201361160
6       -1.521009331     -0.547279282      3.539200386
1       -1.377488739      0.304217635      4.214483290
1       -0.720267532     -1.261654100      3.761583416
6       -3.188483308     -2.351457190      2.849530709
6       -2.876254548     -1.202215411      3.814235470
1       -3.671267893     -0.445143860      3.775041369
1       -2.306681955     -2.973591080      2.657050665
1       -2.872365244     -1.576380877      4.846131854
6       -4.291443313     -3.242553960      3.391662523
8       -5.491224487     -3.048471011      3.240416388
8       -3.802578742     -4.291638693      4.103125350
1       -4.520310867     -4.856590824      4.460969767
1       -4.012027049     -2.568607168      0.991005443
7       -3.675254361     -1.806273784      1.579914383
1       -2.913022512     -1.390702561      1.051951508
1       -1.863117376     -2.123102928     -3.104044232
6       -2.054596629     -1.046660800     -3.066232846
7       -1.253765074     -0.455664638     -2.019714703
1       -0.944191778      0.503294390     -2.146870117
1       -1.755430808     -0.576688922     -4.007293872
6       -3.532520012     -0.828421320     -2.868274637
8       -4.383232029     -1.256634185     -3.638604896
1       -4.796704773      0.014930686     -1.652197068
8       -3.830075012     -0.112727476     -1.758994063
*

$new_job 

! ri-mp2 RIJCOSX def2-TZVP def2-TZVP/C def2/J opt PModel slowconv TightSCF cpcm(water)
%pal nprocs=16 end
%geom maxiter=200 end
%maxcore 1500
%base "1_Cu2_Gsh2
*xyz -2 1
29      -1.149967260     -0.514605917     -0.706152191
29       1.314270740     -0.385122917      0.389141809
16       3.846431327     -0.245055643      1.590512700
16      -3.449942681     -0.548806727     -1.566041802
6       -5.154529470     -0.574154063     -2.203334035
1       -5.102627688     -0.271893750     -3.254999723
1       -5.591165861      1.286275199     -1.217702254
6       -6.111932691      0.344459933     -1.440110332
6       -7.359118539      0.717351194     -2.239055329
8       -6.757281290      1.790577806      0.972059323
8       -8.394194156      0.054578011     -2.212795356
6       -6.809753654      0.564172499      0.936669187
7       -6.518923506     -0.216589491     -0.172615859
1       -6.663184833     -1.220942922     -0.128485677
1       -5.512512642     -1.609591602     -2.186503695
6       -7.200036377     -0.288008954      2.132363792
1       -6.472239410     -0.089960749      2.927813756
1       -7.124499516     -1.355801840      1.897660666
6       -9.680273955     -0.148240061      1.549218988
6       -8.611657404      0.022626182      2.634466487
1       -8.645689871      1.040639497      3.045842729
1       -9.499154376     -1.037754460      0.934700801
1       -8.830062983     -0.646160685      3.476991383
6      -11.067902004     -0.261363961      2.154340885
8      -11.789637477      0.685450301      2.441845860
8      -11.429281944     -1.552183808      2.375554269
1      -12.321569125     -1.617994873      2.777866874
1      -10.493077962      0.982599411      0.052540563
7       -9.694216109      1.034835147      0.685369876
1       -8.882220683      1.042905906      0.074599934
1       -8.819886354      1.583867803     -4.239850939
6       -8.197718149      2.400854204     -3.862675114
7       -7.171186908      1.861179488     -3.001981975
1       -6.282460935      2.351313145     -2.962717705
1       -7.693075683      2.904841617     -4.691712073
6       -9.085841769      3.397355832     -3.163179302
8      -10.022182572      3.963954088     -3.713377646
1       -9.341528507      4.258745570     -1.436656096
8       -8.749135851      3.607747450     -1.869492886
6        5.488700337     -0.154213007      2.369678995
1        5.329459412      0.167832149      3.404563074
1        5.900256399      1.706496991      1.373838500
6        6.453465097      0.802702179      1.665033477
6        7.603957209      1.267242191      2.555765770
8        7.218842100      2.230540088     -0.722804689
8        8.673957513      0.667107165      2.634991460
6        7.338710807      1.010562360     -0.649581559
7        6.999324422      0.238798170      0.452181431
1        7.204507108     -0.755870624      0.447860123
1        5.905911698     -1.166516716      2.411416133
6        7.878580182      0.156725669     -1.784360561
1        7.211477188      0.293087036     -2.643448062
1        7.844886925     -0.908160585     -1.527738172
6       10.287470588      0.457504100     -0.998261966
6        9.307792552      0.539889004     -2.173992554
1        9.318225038      1.548667699     -2.608729761
1       10.105908315     -0.427290093     -0.377096008
1        9.635843495     -0.133308348     -2.976496743
6       11.726086369      0.414035624     -1.480938104
8       12.414022218      1.395637791     -1.732373785
8       12.178928766     -0.857494484     -1.635507345
1       13.104735059     -0.878824137     -1.959221251
1       10.902368009      1.668074659      0.530107967
7       10.159041779      1.658307115     -0.169000379
1        9.298549589      1.631472572      0.370698361
1        8.835357406      2.264028658      4.648120188
6        8.201760268      3.033728684      4.197633569
7        7.285653271      2.414555328      3.268558656
1        6.376792417      2.849686738      3.141125758
1        7.599663638      3.525050622      4.967082730
6        9.087660274      4.065655630      3.548494597
8        9.939134893      4.699367097      4.159957311
1        9.440375954      4.901987859      1.826754076
8        8.851570795      4.226578581      2.225760454
*

$new_job 

! ri-mp2 RIJCOSX def2-TZVP def2-TZVP/C def2/J opt PModel slowconv TightSCF cpcm(water)
%pal nprocs=16 end
%geom maxiter=200 end
%maxcore 1500
%base "2_Cu3_Gsh2"
*xyz -1 1
29       0.628423618     -0.304219692     -2.275236864
29       3.030436618      0.354268308     -3.139544864
16      -1.696671382     -0.829316692     -1.588102864
29      -0.704779382     -0.895074692      0.613281136
16       0.175530618     -1.002382692      2.814109136
6       -3.339325730     -1.056792774     -2.337997074
1       -3.242256016     -0.791939375     -3.396527168
1       -4.032050429      0.785012659     -1.471277038
6       -4.437438555     -0.213844863     -1.684873760
6       -5.654809245     -0.004219164     -2.583149447
8       -5.398634362      1.250016163      0.608487894
8       -6.616732034     -0.769632909     -2.596778715
6       -5.324125243      0.024370106      0.626262094
7       -4.876297225     -0.764453339     -0.423448538
1       -4.921074864     -1.775885043     -0.342915992
1       -3.591046538     -2.122430943     -2.297772263
6       -5.711768814     -0.816621524      1.830705932
1       -5.067234382     -0.513059748      2.663819234
1       -5.511853659     -1.879068590      1.651225613
6       -8.144668772     -0.958656102      1.074402009
6       -7.180191746     -0.635341558      2.220766049
1       -7.346681261      0.388833054      2.581442273
1       -7.830521215     -1.847721305      0.515342846
1       -7.390269450     -1.289927273      3.076458733
6       -9.553893204     -1.192000804      1.588326010
8      -10.386579889     -0.315008193      1.782066290
8       -9.797956803     -2.503836390      1.843800186
1      -10.705787637     -2.646482192      2.187105141
1       -8.957160106      0.022287367     -0.524692207
7       -8.215595298      0.182009175      0.157914818
1       -7.366503118      0.250798155     -0.395937307
1       -7.047010939      0.626951228     -4.716521214
6       -6.539590486      1.518335747     -4.336021832
7       -5.528766806      1.122389683     -3.383514576
1       -4.699344114      1.703546761     -3.306566626
1       -6.029810180      2.039470757     -5.151197856
6       -7.572223848      2.443421163     -3.745294515
8       -8.518757854      2.887600853     -4.383466654
1       -8.038018929      3.340058692     -2.081766201
8       -7.353062165      2.737924830     -2.442798528
6        0.850756051     -1.084691300      4.502213371
1        0.041438763     -0.792587221      5.180252120
1        1.895240405      0.772827826      4.215868276
6        2.070170995     -0.186235552      4.723092259
6        2.322693872      0.141140111      6.193429265
8        4.305469133      1.266694873      3.619131403
8        3.030856453     -0.551373661      6.921625561
6        4.300337607      0.038963995      3.646082216
7        3.275045900     -0.745048531      4.154792395
1        3.393076443     -1.752656242      4.202542883
1        1.092033113     -2.129934537      4.725412976
6        5.437475719     -0.811135529      3.105279909
1        5.538473533     -0.583120887      2.037824558
1        5.200627705     -1.878763087      3.176325234
6        6.676565337     -0.750560995      5.335113826
6        6.762289970     -0.536543292      3.819941739
1        7.101317106      0.484483184      3.597893844
1        6.089802892     -1.641065418      5.588854788
1        7.524676719     -1.202169889      3.395050285
6        8.056511613     -0.897687017      5.950405088
8        8.765800968      0.030650478      6.317987129
8        8.448285575     -2.196046204      6.031171940
1        9.345478238     -2.283580340      6.418142273
1        6.129521085      0.339479803      6.975860063
7        6.060718590      0.422054503      5.961054955
1        5.062683941      0.447236647      5.772019695
1        1.835662827      0.942459254      8.644666730
6        1.705534195      1.781425347      7.954721738
7        1.645212911      1.281554317      6.601097653
1        1.081981348      1.797939901      5.931976829
1        0.758615517      2.290874988      8.154160170
6        2.832101300      2.759063468      8.169532617
8        3.061722399      3.291893807      9.248352288
1        4.291251251      3.631461966      7.221876219
8        3.564927929      2.993409290      7.056290856
*

$new_job

! ri-mp2 RIJCOSX def2-TZVP def2-TZVP/C def2/J opt PModel slowconv TightSCF cpcm(water)
%pal nprocs=16 end
%geom maxiter=200 end
%maxcore 1500
%base "3_Cu4_Gsh3"
*xyz -1 1
29      -1.706402596     -1.926630579     -0.613828674
16       1.704374404     -1.059549579      2.965884326
16      -2.400967596     -0.612016579     -2.724154674
29      -0.164079596     -2.082203579      1.507198326
29      -0.301763596      0.282166421     -1.779093674
29       1.567027404      0.093359421      0.790849326
16       1.836688404      1.382606421     -1.278981674
6       -3.622828664     -0.428140149     -4.060434955
1       -3.073293815     -0.091157865     -4.946160759
1       -4.315569762      1.427304505     -3.223324871
6       -4.748618528      0.556707559     -3.735388506
6       -5.460402227      1.093471741     -4.975582732
8       -6.309701642      1.965653036     -1.759487112
8       -6.441188885      0.545406807     -5.474603544
6       -6.435123902      0.754436767     -1.918547464
7       -5.731470541     -0.007824686     -2.839695767
1       -5.957337168     -0.991781434     -2.950592134
1       -4.028070635     -1.418879919     -4.294485724
6       -7.392957698     -0.098209508     -1.103827775
1       -7.095670449     -0.011785760     -0.052255910
1       -7.301636270     -1.157619326     -1.368939554
6       -9.314222279      0.330973835     -2.727316525
6       -8.849259881      0.342064111     -1.266978990
1       -8.988307519      1.340450491     -0.830366894
1       -8.942108021     -0.547419035     -3.267344038
1       -9.479309390     -0.332688369     -0.673201441
6      -10.829138201      0.343567722     -2.824023661
8      -11.526689218      1.350208357     -2.813269128
8      -11.350491974     -0.908720341     -2.899598470
1      -12.330118198     -0.894267976     -2.949463595
1       -9.263717570      1.601997078     -4.327767636
7       -8.840507740      1.542469023     -3.401089903
1       -7.841358699      1.487684313     -3.577559336
1       -5.774561555      2.191924955     -7.338331380
6       -5.331968044      2.921382176     -6.653623555
7       -4.856875551      2.240197636     -5.472064156
1       -4.049099039      2.629877587     -4.995353359
1       -4.467150259      3.401083750     -7.120470649
6       -6.361222601      3.978710935     -6.347413822
8       -6.896034960      4.664445046     -7.210101697
1       -7.309255698      4.792453764     -4.854997585
8       -6.637067603      4.099435118     -5.028097614
6        3.009136516      2.546083389     -2.043237370
1        3.595944674      2.983563530     -1.228177175
1        1.449193264      4.001494167     -2.310959053
6        2.336304855      3.653357488     -2.858237153
6        3.225346506      4.877838501     -3.065805773
8        0.038761990      4.596269489     -4.327423290
8        3.986256971      4.998271439     -4.023850961
6        0.753744071      3.704197120     -4.775846416
7        1.875738323      3.186240810     -4.145342703
1        2.448603870      2.500707573     -4.628409846
1        3.705562368      1.973246123     -2.665663758
6        0.497652928      3.021989755     -6.108974264
1       -0.489255558      2.548405530     -6.050821156
1        1.220802966      2.217898882     -6.286357780
6        1.854673551      4.770821169     -7.378326604
6        0.531643454      4.003141758     -7.282626947
1       -0.310977284      4.703923034     -7.207556134
1        2.716941052      4.124392566     -7.177584016
1        0.365456349      3.436062683     -8.207628698
6        2.034001200      5.391862315     -8.751873334
8        1.599734522      6.485375166     -9.091962360
8        2.720738379      4.580484506     -9.597925816
1        2.822582427      4.982096055    -10.487138329
1        2.667515114      6.465710750     -6.574502948
7        1.850643405      5.875059132     -6.415653815
1        1.965868750      5.525888323     -5.468423907
1        4.814865857      6.881036782     -2.475465534
6        3.840967452      7.037348650     -2.002274077
7        3.086775922      5.806385055     -2.043886979
1        2.431027269      5.628925155     -1.288831863
1        3.971011529      7.301858747     -0.949139444
6        3.144467005      8.176146839     -2.701630396
8        3.619415178      9.301999318     -2.787457719
1        1.511000615      8.593503701     -3.674179197
8        1.943347685      7.836628523     -3.224411175
6        2.583474967     -1.116637617      4.558468125
1        1.862165059     -0.819999581      5.327736416
1        3.572120879      0.742395236      4.122699269
6        3.814785873     -0.209144252      4.616020407
6        4.244786870      0.138431774      6.039791312
8        5.886821935      1.240944372      3.226702696
8        5.042096076     -0.540992424      6.683235327
6        5.893286351      0.013652124      3.268984356
7        4.943957411     -0.769015446      3.909992007
1        5.073731946     -1.775303592      3.955018166
1        2.857472611     -2.157663946      4.762809955
6        6.960589798     -0.837472410      2.602148693
1        6.927435131     -0.622703572      1.527705919
1        6.741490829     -1.905302351      2.714877933
6        8.465179209     -0.741812059      4.660845235
6        8.361661886     -0.546882050      3.144209090
1        8.663816156      0.472933286      2.869583511
1        7.920232210     -1.631985684      4.995951868
1        9.070172820     -1.213988984      2.636463420
6        9.911512106     -0.873894918      5.102610328
8       10.654535332      0.062739010      5.368414428
8       10.318954220     -2.169071681      5.150094833
1       11.257640283     -2.246994351      5.424247112
1        8.117691287      0.366432040      6.343266625
7        7.923518266      0.435578335      5.343818078
1        6.909630875      0.453184178      5.279288821
1        4.058895466      0.968726535      8.522517981
6        3.838924047      1.798058395      7.843811197
7        3.615220500      1.280496179      6.514189467
1        2.970206362      1.785316156      5.913589689
1        2.920497785      2.305150215      8.152551697
6        4.976820056      2.784170217      7.905856315
8        5.334359306      3.332022234      8.941476782
1        6.301865552      3.651798010      6.774606203
8        5.564943836      3.007934070      6.707816162
* 

$new_job

! ri-mp2 RIJCOSX def2-TZVP def2-TZVP/C def2/J opt PModel slowconv TightSCF cpcm(water)
%pal nprocs=16 end
%geom maxiter=200 end
%maxcore 1500
%base "4_Cu5_Gsh4"
*xyz -1 1
29       0.082016021      0.002670360      0.059043811
29       2.762769021      0.799505360     -0.334164189
16      -1.632236979     -1.978257640      0.182540811
29      -0.332068979     -2.102812640      2.199290811
16       1.438402021     -2.028635640      3.867438811
29       2.175380021     -0.658061640      1.835964811
29       0.765680021      2.115767360     -2.003178189
16      -1.402255979      1.892419360     -0.991546189
16       3.154575021      2.160118360     -2.465767189
6        4.402897816      2.790840105     -3.630361659
1        5.225911082      3.187831479     -3.026124269
1        3.223198524      4.549782596     -4.001507557
6        3.874491016      3.874368060     -4.573620078
6        4.976968161      4.742989905     -5.176010131
8        1.634895481      5.137373129     -5.883323937
8        5.542415093      4.469865254     -6.232898063
6        2.009418760      4.015126971     -6.212522454
7        3.072151827      3.328317036     -5.643685647
1        3.355215051      2.434172663     -6.033385109
1        4.803632400      1.943112297     -4.197226251
6        1.339972413      3.200830396     -7.306589224
1        0.298309001      3.040336177     -7.005207236
1        1.796539424      2.208570908     -7.395699795
6        2.807763061      4.240053786     -9.116776234
6        1.382436574      3.902911625     -8.665468899
1        0.767246541      4.812494708     -8.634816510
1        3.508640892      3.426414550     -8.896698451
1        0.906032757      3.246325238     -9.404900295
6        2.861602242      4.525665941    -10.606745418
8        2.649099275      5.616036488    -11.122451738
8        3.151415278      3.415044836    -11.333571302
1        3.172624215      3.603507348    -12.296065459
1        4.149654540      5.757483890     -8.840682577
7        3.260653374      5.457472303     -8.439370050
1        3.469763457      5.268424288     -7.463165434
1        7.090238102      6.295498156     -5.284107313
6        6.295314849      6.800791170     -4.727692316
7        5.270787375      5.843084758     -4.382801386
1        4.751777769      5.996158225     -3.523264253
1        6.688655098      7.205494679     -3.790959629
6        5.774650129      7.941687843     -5.563357609
8        6.483421022      8.855041328     -5.968221948
1        4.134780313      8.614171326     -6.367623310
8        4.448855348      7.861695695     -5.822451233
6        1.902362987     -2.610620815      5.528292049
1        1.042906189     -2.420906522      6.180517709
1        3.108594465     -0.859324933      5.846547826
6        3.150787564     -1.929202929      6.094055923
6        3.252263857     -2.018140475      7.615445490
8        5.602305812     -0.479060721      5.632060237
8        3.816342042     -2.943391388      8.196019308
6        5.502688914     -1.665287835      5.330369175
7        4.369195295     -2.444035974      5.513203314
1        4.405476065     -3.436720830      5.301672934
1        2.037252265     -3.697190692      5.486616002
6        6.629107841     -2.460146969      4.691934542
1        6.871652233     -1.977266525      3.738178359
1        6.306757943     -3.480038441      4.453428882
6        7.598355235     -3.101868090      6.963481403
6        7.877396987     -2.515890231      5.575077863
1        8.315225345     -1.512498492      5.665913302
1        6.921188355     -3.962521045      6.914550039
1        8.632806410     -3.124745294      5.061777574
6        8.881544971     -3.543020623      7.644135260
8        9.609777254     -2.818160578      8.310674161
8        9.163383694     -4.851712424      7.412533431
1        9.999810511     -5.127372490      7.844696186
1        6.944758991     -2.419524281      8.776410923
7        7.002139565     -2.072488593      7.818467568
1        6.037929825     -1.897221459      7.550097226
1        2.541275069     -1.827563539     10.134582662
6        2.556003304     -0.830774507      9.684009291
7        2.618292316     -0.957319525      8.246680412
1        2.177678375     -0.231384475      7.689469322
1        1.632755216     -0.295148579      9.922100539
6        3.719090210     -0.062167504     10.256325265
8        3.859230104      0.149233333     11.454722694
1        5.340428052      0.869678309      9.716716749
8        4.593169789      0.373652528      9.319679206
6       -2.998800008     -2.819829109     -0.675749904
1       -2.822143264     -2.693758504     -1.749507049
1       -4.328392702     -1.187141950     -0.240050132
6       -4.383467785     -2.282765014     -0.305290292
6       -5.454874813     -2.601374462     -1.346159420
8       -6.074778582     -0.883234069      1.567428343
8       -6.134419857     -3.625405979     -1.315870892
6       -5.646103366     -2.006138797      1.819218573
7       -4.829535125     -2.755602486      0.984829420
1       -4.586151057     -3.706368023      1.246160068
1       -2.928397159     -3.892742120     -0.464877383
6       -5.949524019     -2.743236571      3.112602583
1       -5.559524728     -2.134243917      3.936423353
1       -5.420264300     -3.701948886      3.154170219
6       -8.085548595     -3.755768552      2.151691738
6       -7.447916266     -2.981721040      3.310645664
1       -7.962303192     -2.022126481      3.456673421
1       -7.441140765     -4.570624631      1.801804771
1       -7.585048727     -3.538250800      4.246751632
6       -9.425030229     -4.346331986      2.553568473
8      -10.498603403     -3.759716208      2.495766917
8       -9.308038588     -5.616530586      3.021174261
1      -10.175087894     -5.988010981      3.290600980
1       -8.894374366     -3.324370556      0.324346338
7       -8.347285394     -2.841264718      1.037567326
1       -7.481417677     -2.588042681      0.570027672
1       -6.625008202     -2.758592073     -3.690076482
6       -6.467764481     -1.707312370     -3.431412497
7       -5.544608129     -1.620922354     -2.324106313
1       -4.945489475     -0.802424339     -2.271910747
1       -6.014907814     -1.175174564     -4.272673339
6       -7.805264453     -1.081533416     -3.130467360
8       -8.730450963     -1.056932651     -3.932907778
1       -8.765153799     -0.147982960     -1.717900066
8       -7.886107710     -0.547850224     -1.889537600
6       -3.057966239      2.647873932     -1.009207604
1       -3.206930963      3.057819876     -2.014100457
1       -2.331444233      4.356839727      0.074729696
6       -3.245266733      3.747468655      0.039025668
6       -4.391249995      4.703860357     -0.284811964
8       -2.436136832      4.951877467      2.533219401
8       -5.546851556      4.515520895      0.089958220
6       -3.016128204      3.869636077      2.512258218
7       -3.442778612      3.213531844      1.366753335
1       -3.981478367      2.356868818      1.452867520
1       -3.800069747      1.852826246     -0.875987231
6       -3.345955987      3.076601754      3.765465949
1       -2.398527047      2.844896775      4.265809197
1       -3.810352793      2.116301608      3.514204615
6       -5.574033401      4.283946544      4.064064763
6       -4.259576321      3.847721591      4.720425273
1       -3.727019246      4.719934633      5.123373289
1       -5.988825785      3.499385061      3.420571696
1       -4.473069531      3.204499800      5.583855320
6       -6.616909775      4.646981952      5.105743835
8       -6.737571554      5.748906294      5.626533551
8       -7.408475590      3.591838381      5.431077980
1       -8.072066057      3.829569044      6.113349746
1       -6.240348033      5.855939992      2.939628914
7       -5.344700068      5.488320252      3.262200178
1       -4.837981482      5.261788203      2.411106096
1       -5.876147384      6.372031720     -1.663275155
6       -4.882043196      6.804762088     -1.517251355
7       -3.976099964      5.776764808     -1.060856435
1       -2.998699385      5.857870836     -1.324895182
1       -4.491493676      7.182323760     -2.466402484
6       -4.996654037      7.956550321     -0.552201267
8       -5.719209757      8.926244041     -0.747376115
1       -4.316429145      8.579003390      1.161886433
8       -4.223787224      7.818058322      0.549958843
*
