! opt ri-mp2 def2-tzvp def2-tzvp/c TightSCF hueckel slowconv
%pal nprocs=8 end
%geom maxiter=200 end
%base "1_Cu2C2H6S2"
*xyz -1 2
29      -5.511764000      7.532655000      4.959335000
16      -0.715908000      7.772348000      7.181896000
6       -1.287391000      7.755415000      8.916652000
1       -1.861350000      6.851802000      9.144548000
1       -1.934611000      8.609900000      9.137658000
1       -0.439569000      7.793475000      9.611789000
16      -7.852407000      7.459536000      3.847775000
6       -7.495339000      8.595457000      2.462696000
1       -8.376539000      8.726352000      1.822526000
1       -6.681806000      8.222100000      1.832890000
1       -7.195530000      9.585953000      2.818943000
29      -3.047526000      7.662138000      6.054629000
*

$new_job 

! opt ri-mp2 def2-tzvp def2-tzvp/c TightSCF hueckel slowconv
%pal nprocs=8 end
%geom maxiter=200 end
%base "2_Cu3C2H6S2"
*xyz -1 2
29      -6.396354000      6.676873000      4.512935000
29      -3.994341000      7.335361000      3.648627000
16      -8.721449000      6.151776000      5.200069000
6       -9.497061000      7.809129000      5.140892000
1      -10.396324000      7.816602000      5.757643000
1       -9.777146000      8.037637000      4.111546000
1       -8.825046000      8.587742000      5.497833000
29      -7.729557000      6.086018000      7.401453000
16      -6.849247000      5.978710000      9.602281000
1       -5.037395000      7.504993000      8.961873000
1       -4.587674000      5.824257000      8.663027000
6       -5.110659000      6.488828000      9.351936000
1       -4.592701000      6.456279000     10.313337000
*

$new_job

! opt ri-mp2 def2-tzvp def2-tzvp/c TightSCF hueckel slowconv
%pal nprocs=8 end
%geom maxiter=200 end
%base "3_Cu4C3H9S3"
*xyz -1 2
29      -5.369518000      6.359996000      3.526155000
16      -1.958741000      7.227077000      7.105868000
6       -3.000945000      8.308921000      8.150339000
1       -3.214488000      7.799260000      9.091237000
1       -3.950293000      8.544901000      7.666968000
1       -2.481244000      9.241988000      8.372517000
16      -6.064083000      7.674610000      1.415829000
6       -7.299863000      8.781180000      2.187640000
1       -7.267290000      9.770219000      1.728429000
1       -7.131797000      8.889190000      3.260403000
1       -8.296845000      8.363376000      2.038811000
29      -3.827195000      6.204423000      5.647182000
29      -3.964879000      8.568793000      2.360890000
29      -2.096088000      8.379986000      4.930833000
16      -1.826427000      9.669233000      2.861002000
6       -0.677467000      8.577732000      1.942969000
1       -0.704199000      8.833477000      0.883132000
1        0.337348000      8.725599000      2.313987000
1       -0.938542000      7.525944000      2.053597000
* 

$new_job

! opt ri-mp2 def2-tzvp def2-tzvp/c TightSCF hueckel slowconv
%pal nprocs=8 end
%geom maxiter=200 end
%base "4_Cu5C4H12S4"
*xyz -1 2
29      -6.044470000      7.734952000      3.792725000
29      -3.363717000      8.531787000      3.399517000
16      -7.758723000      5.754024000      3.916222000
6       -9.307371000      6.637672000      4.319634000
1       -9.118373000      7.689279000      4.536570000
1       -9.810277000      6.176260000      5.169767000
1       -9.972527000      6.581260000      3.456140000
29      -6.458555000      5.629469000      5.932972000
16      -4.688084000      5.703646000      7.601120000
1       -6.036831000      6.728963000      9.347102000
1       -5.561901000      7.935676000      8.140365000
6       -5.224392000      7.064297000      8.701509000
1       -4.384417000      7.364836000      9.329265000
29      -3.951106000      7.074220000      5.569646000
29      -5.360806000      9.848049000      1.730503000
16      -7.528742000      9.624701000      2.742135000
6       -8.573289000      8.667143000      1.587193000
1       -9.598791000      8.675385000      1.960712000
1       -8.567567000      9.114374000      0.592963000
1       -8.242682000      7.630341000      1.520863000
16      -2.971911000      9.892400000      1.267914000
6       -2.764839000      8.522282000      0.072191000
1       -1.704975000      8.275894000     -0.004889000
1       -3.303630000      7.625946000      0.379405000
1       -3.122869000      8.824185000     -0.912677000
*
